NAME          COPTPROB
OBJSENSE
  MIN
ROWS
 N  __OBJ___
 L  C12     
 L  C17     
 L  C23     
 L  C24     
 L  C50     
 L  C55     
 L  C123    
 L  C140    
 L  C159    
 L  C162    
 L  C165    
 L  C170    
 L  C177    
COLUMNS
    MARKER    'MARKER'                 'INTORG'
    x9        __OBJ___  180
    x9        C50       -1
    x9        C159      -1
    x104      __OBJ___  109
    x104      C50       -1
    x168      __OBJ___  230
    x168      C23       -1
    x168      C123      -1
    x256      __OBJ___  481
    x256      C24       -1
    x256      C55       -1
    x264      __OBJ___  57
    x264      C24       -1
    x264      C170      -1
    x272      __OBJ___  117
    x272      C140      -1
    x272      C159      -1
    x318      __OBJ___  243
    x318      C23       -1
    x318      C177      -1
    x339      __OBJ___  59
    x339      C162      -1
    x339      C170      -1
    x370      __OBJ___  36
    x370      C177      -1
    x399      __OBJ___  426
    x399      C55       -1
    x527      __OBJ___  140
    x527      C159      -1
    x527      C170      -1
    x571      __OBJ___  27
    x571      C12       -1
    x571      C17       -1
    x589      __OBJ___  120
    x589      C50       -1
    x589      C123      -1
    x602      __OBJ___  84
    x602      C162      -1
    x602      C177      -1
    x703      __OBJ___  114
    x703      C17       -1
    x703      C140      -1
    x757      __OBJ___  840
    x757      C55       -1
    x757      C165      -1
    x773      __OBJ___  452
    x773      C12       -1
    x773      C165      -1
    MARKER    'MARKER'                 'INTEND'
RHS
    RHS       __OBJ___  -17126
    RHS       C12       -1
    RHS       C17       -1
    RHS       C23       -1
    RHS       C24       -1
    RHS       C50       -1
    RHS       C55       -1
    RHS       C123      -1
    RHS       C140      -1
    RHS       C159      -1
    RHS       C162      -1
    RHS       C165      -1
    RHS       C170      -1
    RHS       C177      -1
BOUNDS
 UP BOUND     x9        1
 UP BOUND     x104      1
 UP BOUND     x168      1
 UP BOUND     x256      1
 UP BOUND     x264      1
 UP BOUND     x272      1
 UP BOUND     x318      1
 UP BOUND     x339      1
 UP BOUND     x370      1
 UP BOUND     x399      1
 UP BOUND     x527      1
 UP BOUND     x571      1
 UP BOUND     x589      1
 UP BOUND     x602      1
 UP BOUND     x703      1
 UP BOUND     x757      1
 UP BOUND     x773      1
ENDATA
